
  32    4
  10   10   10   10

   0   0   0   0   0   7 2 3 4 5 11 12 14 
   1   0   1   1   1   4 16 13 9 6 
  10   0   2   2   6   6 22 19 16 15 10 9 
   8   1   0   2   3   5 22 15 13 10 8 
   7   1   7   3   0   3 17 15 7 
  10   5   5   4   0   6 31 30 22 19 17 10 
   8   6   3   0   7   8 31 30 29 22 21 20 19 18 
   6   6   3   1   0   6 30 29 28 21 20 19 
   8   0   6   5   8   5 31 30 21 20 17 
   2   3   2   0   6   4 24 21 20 18 
   3   6   9   7   0   4 31 30 22 18 
   9   0   3   5   7   3 22 21 17 
   6   5   4   0   2   4 31 30 24 20 
   2   3   4   6   0   3 24 22 18 
   5   6   0   6   3   3 28 24 20 
   5   6   4   4   0   3 29 21 20 
  10   2   0   2   3   4 29 28 25 23 
  10   4   3   3   0   3 28 25 23 
   1   0   4   4   4   3 27 26 24 
   3   4   4   7   0   2 25 23 
   4   3   3   3   0   3 27 26 25 
   1   3   4   5   0   3 27 26 25 
  10   2   0   3   4   2 27 26 
  10   4   0   4   4   1 25 
   6   4   0   5   1   1 32
   5   5   0   8   2   1 32
   1   0   4   3   4   1 32
   9   4   5   5   0   1 32
   2   6   0   2   2   1 32
   6   3   5   0   6   1 32
   9   4   3   0   3   1 32
   0   0   0   0   0   0 
